
Welcome to IBM(R) ILOG(R) CPLEX(R) Interactive Optimizer 22.1.1.0
  with Simplex, Mixed Integer & Barrier Optimizers
5725-A06 5725-A29 5724-Y48 5724-Y49 5724-Y54 5724-Y55 5655-Y21
Copyright IBM Corp. 1988, 2022.  All Rights Reserved.

Type 'help' for a list of available commands.
Type 'help' followed by a command name for more
information on commands.

CPLEX> Selected objective sense:  MINIMIZE
Selected objective  name:  00000000
Selected RHS        name:  RHS1
Selected bound      name:  BOUND
Problem 'ee.mps' read.
Read time = 0.03 sec. (3.17 ticks)
CPLEX> New value for time limit in seconds: 7200
CPLEX> New value for parallel optimization mode: -1
CPLEX> New value for default parallel thread count: 40
CPLEX> New value for mixed integer optimality gap tolerance: 1e-13
CPLEX> Version identifier: 22.1.1.0 | 2022-11-28 | 9160aff4d
CPXPARAM_Threads                                 40
CPXPARAM_Parallel                                -1
CPXPARAM_TimeLimit                               7200
CPXPARAM_MIP_Tolerances_MIPGap                   1e-13
Found incumbent of value 0.000000 after 0.00 sec. (0.31 ticks)
Tried aggregator 2 times.
MIP Presolve eliminated 183 rows and 2745 columns.
MIP Presolve modified 6090 coefficients.
Aggregator did 713 substitutions.
Reduced MIP has 3636 rows, 7840 columns, and 28953 nonzeros.
Reduced MIP has 7840 binaries, 0 generals, 0 SOSs, and 0 indicators.
Presolve time = 0.07 sec. (69.14 ticks)
Probing time = 0.03 sec. (5.35 ticks)
Tried aggregator 1 time.
Detecting symmetries...
Reduced MIP has 3636 rows, 7840 columns, and 28953 nonzeros.
Reduced MIP has 7840 binaries, 0 generals, 0 SOSs, and 0 indicators.
Presolve time = 0.02 sec. (22.08 ticks)
Probing time = 0.02 sec. (5.13 ticks)
Clique table members: 18788.
MIP emphasis: balance optimality and feasibility.
MIP search method: dynamic search.
Parallel mode: opportunistic, using up to 40 threads.
Root relaxation solution time = 0.07 sec. (53.75 ticks)

        Nodes                                         Cuts/
   Node  Left     Objective  IInf  Best Integer    Best Bound    ItCnt     Gap

*     0+    0                            0.0000  -1.54000e+13              --- 
*     0+    0                      -7.20000e+12  -1.54000e+13           113.89%
      0     0  -1.53900e+13    87  -7.20000e+12  -1.53900e+13     1766  113.75%
*     0+    0                      -1.53900e+13  -1.53900e+13             0.00%
      0     0  -1.53900e+13   173  -1.53900e+13     Cuts: 102     2372    0.00%
      0     0  -1.53900e+13   244  -1.53900e+13      Cuts: 72     2508    0.00%
*     0+    0                      -1.53900e+13  -1.53900e+13             0.00%
*     0+    0                      -1.53900e+13  -1.53900e+13             0.00%
      0     2  -1.53900e+13   240  -1.53900e+13  -1.53900e+13     2508    0.00%
Elapsed time = 2.14 sec. (1135.49 ticks, tree = 0.02 MB, solutions = 9)
*     1+   34                      -1.53900e+13  -1.53900e+13             0.00%
*     2+   39                      -1.53900e+13  -1.53900e+13             0.00%
    120    71    infeasible        -1.53900e+13  -1.53900e+13    49395    0.00%
    396    52  -1.53900e+13   147  -1.53900e+13  -1.53900e+13    35534    0.00%
    760    87  -1.53900e+13    63  -1.53900e+13  -1.53900e+13    50245    0.00%
   1092    82  -1.53900e+13   109  -1.53900e+13  -1.53900e+13    61517    0.00%
   1511   307  -1.53900e+13   187  -1.53900e+13  -1.53900e+13   194177    0.00%
   1896   235        cutoff        -1.53900e+13  -1.53900e+13   167228    0.00%
   2322   236        cutoff        -1.53900e+13  -1.53900e+13   168722    0.00%
   2778   321  -1.53900e+13   167  -1.53900e+13  -1.53900e+13   228908    0.00%
   3157   359        cutoff        -1.53900e+13  -1.53900e+13   263500    0.00%
   4496   539        cutoff        -1.53900e+13  -1.53900e+13   393001    0.00%
Elapsed time = 8.35 sec. (4242.86 ticks, tree = 1.20 MB, solutions = 27)
   5831  1178        cutoff        -1.53900e+13  -1.53900e+13  1024451    0.00%
   7014   877  -1.53900e+13   175  -1.53900e+13  -1.53900e+13   745517    0.00%
   8137  1175  -1.53900e+13   166  -1.53900e+13  -1.53900e+13   995924    0.00%
   9122  1263  -1.53900e+13   105  -1.53900e+13  -1.53900e+13  1703854    0.00%
   9690  1419  -1.53900e+13    99  -1.53900e+13  -1.53900e+13  1263659    0.00%
  10253  1471  -1.53900e+13   255  -1.53900e+13  -1.53900e+13  1355628    0.00%
  10871  1426        cutoff        -1.53900e+13  -1.53900e+13  1606306    0.00%
  11766  1040        cutoff        -1.53900e+13  -1.53900e+13  1794359    0.00%

Performing restart 1

Repeating presolve.
Tried aggregator 1 time.
MIP Presolve eliminated 29 rows and 14 columns.
MIP Presolve modified 1861 coefficients.
Reduced MIP has 3531 rows, 7826 columns, and 28313 nonzeros.
Reduced MIP has 7826 binaries, 0 generals, 0 SOSs, and 0 indicators.
Presolve time = 0.03 sec. (28.11 ticks)
Tried aggregator 2 times.
MIP Presolve eliminated 13 rows and 47 columns.
MIP Presolve modified 32 coefficients.
Aggregator did 17 substitutions.
Reduced MIP has 3501 rows, 7756 columns, and 28059 nonzeros.
Reduced MIP has 7756 binaries, 0 generals, 0 SOSs, and 0 indicators.
Presolve time = 0.06 sec. (54.31 ticks)
Represolve time = 0.21 sec. (135.74 ticks)
  11935     0  -1.53900e+13   387  -1.53900e+13      Cuts: 55  1937226    0.00%
  11935     0  -1.53900e+13   333  -1.53900e+13      Cuts: 37  1937736    0.00%
  11935     0  -1.53900e+13   347  -1.53900e+13      Cuts: 50  1938304    0.00%
  11935     0  -1.53900e+13   378  -1.53900e+13      Cuts: 50  1938664    0.00%
  11935     0  -1.53900e+13   274  -1.53900e+13      Cuts: 51  1939192    0.00%
  11935     0  -1.53900e+13   392  -1.53900e+13      Cuts: 48  1939593    0.00%
  11935     0  -1.53900e+13   385  -1.53900e+13      Cuts: 47  1940062    0.00%
  11935     0  -1.53900e+13   369  -1.53900e+13      Cuts: 48  1940258    0.00%
  11935     0  -1.53900e+13   361  -1.53900e+13      Cuts: 34  1940481    0.00%
  11935     5        cutoff        -1.53900e+13  -1.53900e+13  1946385    0.00%
  12220    14  -1.53900e+13   182  -1.53900e+13  -1.53900e+13  1970347    0.00%
Elapsed time = 24.12 sec. (17319.29 ticks, tree = 0.05 MB, solutions = 27)
  12269    11  -1.53900e+13   210  -1.53900e+13  -1.53900e+13  1958997    0.00%

GUB cover cuts applied:  6
Clique cuts applied:  7
Cover cuts applied:  254
Flow cuts applied:  1
Mixed integer rounding cuts applied:  16
Zero-half cuts applied:  50
Lift and project cuts applied:  2
Gomory fractional cuts applied:  21

Root node processing (before b&c):
  Real time             =    1.25 sec. (1134.25 ticks)
Parallel b&c, 40 threads:
  Real time             =   22.91 sec. (17376.42 ticks)
  Sync time (average)   =    4.10 sec.
  Wait time (average)   =    0.13 sec.
                          ------------
Total (root+branch&cut) =   24.16 sec. (18510.67 ticks)

Solution pool: 27 solutions saved.

MIP - Integer optimal solution:  Objective = -1.5389997889e+13
Solution time =   24.26 sec.  Iterations = 1978067  Nodes = 12271
Deterministic time = 18510.70 ticks  (763.03 ticks/sec)

CPLEX> Solution 'p28' written to file 'ee.sol'.
CPLEX> 